

[NpcPos]	Flags	Index	PosX	PosY	Type	IsRangeCheck
0	0	1	0	0	7	0
1	0	2	0	0	7	0
2	0	3	0	0	7	0
3	0	4	0	0	6	0
4	0	5	0	0	6	0
5	0	6	0	0	6	0
6	0	7	0	0	6	0
7	0	8	0	0	7	0
8	0	9	0	0	7	0
9	0	10	0	0	7	0
10	0	11	0	0	7	0
11	0	12	0	0	7	0
12	0	13	0	0	7	0
13	0	14	0	0	7	0
14	0	15	0	0	7	0
15	0	16	0	0	7	0
16	0	17	0	0	7	0
17	0	50	0	0	1	0

[WarpLst]	NpcsIdx	NSetIdx	TargetIdx	LV	Fee	Type
0	4	0	68	0	0	0
1	4	1	69	0	0	0
2	4	2	70	0	0	0
3	4	3	71	0	0	0
4	4	4	72	0	0	0
5	4	5	73	0	0	0
6	4	6	74	0	0	0
7	4	7	75	0	0	0
8	4	8	76	0	0	0
9	4	9	77	0	0	0
10	4	10	78	0	0	0
11	4	11	79	0	0	0
12	4	12	80	0	0	0
13	4	13	81	0	0	0
14	4	14	82	0	0	0
15	4	15	83	0	0	0
16	4	16	84	0	0	0
17	4	17	85	0	0	0
18	4	18	86	0	0	0
19	4	19	87	0	0	0
20	4	20	88	0	0	0
21	4	21	89	0	0	0
22	4	22	90	0	0	0
23	4	23	91	0	0	0
24	4	24	92	0	0	0
25	4	25	93	0	0	0
26	4	26	94	0	0	0
27	4	27	95	0	0	0
28	4	28	96	0	0	0
29	4	29	97	0	0	0
30	4	30	98	0	0	0
31	4	31	99	0	0	0
32	4	32	100	0	0	0
33	4	33	101	0	0	0
34	4	34	102	0	0	0
35	4	35	103	0	0	0
36	4	36	104	0	0	0
37	4	37	105	0	0	0
38	4	38	106	0	0	0
39	4	39	107	0	0	0
40	4	40	108	0	0	0
41	4	41	109	0	0	0
42	4	42	110	0	0	0
43	4	43	111	0	0	0
44	4	44	112	0	0	0
45	4	45	113	0	0	0
46	4	46	114	0	0	0
47	4	47	115	0	0	0
48	5	0	68	0	0	0
49	5	1	69	0	0	0
50	5	2	70	0	0	0
51	5	3	71	0	0	0
52	5	4	72	0	0	0
53	5	5	73	0	0	0
54	5	6	74	0	0	0
55	5	7	75	0	0	0
56	5	8	76	0	0	0
57	5	9	77	0	0	0
58	5	10	78	0	0	0
59	5	11	79	0	0	0
60	5	12	80	0	0	0
61	5	13	81	0	0	0
62	5	14	82	0	0	0
63	5	15	83	0	0	0
64	5	16	84	0	0	0
65	5	17	85	0	0	0
66	5	18	86	0	0	0
67	5	19	87	0	0	0
68	5	20	88	0	0	0
69	5	21	89	0	0	0
70	5	22	90	0	0	0
71	5	23	91	0	0	0
72	5	24	92	0	0	0
73	5	25	93	0	0	0
74	5	26	94	0	0	0
75	5	27	95	0	0	0
76	5	28	96	0	0	0
77	5	29	97	0	0	0
78	5	30	98	0	0	0
79	5	31	99	0	0	0
80	5	32	100	0	0	0
81	5	33	101	0	0	0
82	5	34	102	0	0	0
83	5	35	103	0	0	0
84	5	36	104	0	0	0
85	5	37	105	0	0	0
86	5	38	106	0	0	0
87	5	39	107	0	0	0
88	5	40	108	0	0	0
89	5	41	109	0	0	0
90	5	42	110	0	0	0
91	5	43	111	0	0	0
92	5	44	112	0	0	0
93	5	45	113	0	0	0
94	5	46	114	0	0	0
95	5	47	115	0	0	0
96	6	0	68	0	0	0
97	6	1	69	0	0	0
98	6	2	70	0	0	0
99	6	3	71	0	0	0
100	6	4	72	0	0	0
101	6	5	73	0	0	0
102	6	6	74	0	0	0
103	6	7	75	0	0	0
104	6	8	76	0	0	0
105	6	9	77	0	0	0
106	6	10	78	0	0	0
107	6	11	79	0	0	0
108	6	12	80	0	0	0
109	6	13	81	0	0	0
110	6	14	82	0	0	0
111	6	15	83	0	0	0
112	6	16	84	0	0	0
113	6	17	85	0	0	0
114	6	18	86	0	0	0
115	6	19	87	0	0	0
116	6	20	88	0	0	0
117	6	21	89	0	0	0
118	6	22	90	0	0	0
119	6	23	91	0	0	0
120	6	24	92	0	0	0
121	6	25	93	0	0	0
122	6	26	94	0	0	0
123	6	27	95	0	0	0
124	6	28	96	0	0	0
125	6	29	97	0	0	0
126	6	30	98	0	0	0
127	6	31	99	0	0	0
128	6	32	100	0	0	0
129	6	33	101	0	0	0
130	6	34	102	0	0	0
131	6	35	103	0	0	0
132	6	36	104	0	0	0
133	6	37	105	0	0	0
134	6	38	106	0	0	0
135	6	39	107	0	0	0
136	6	40	108	0	0	0
137	6	41	109	0	0	0
138	6	42	110	0	0	0
139	6	43	111	0	0	0
140	6	44	112	0	0	0
141	6	45	113	0	0	0
142	6	46	114	0	0	0
143	6	47	115	0	0	0
144	7	0	68	0	0	0
145	7	1	69	0	0	0
146	7	2	70	0	0	0
147	7	3	71	0	0	0
148	7	4	72	0	0	0
149	7	5	73	0	0	0
150	7	6	74	0	0	0
151	7	7	75	0	0	0
152	7	8	76	0	0	0
153	7	9	77	0	0	0
154	7	10	78	0	0	0
155	7	11	79	0	0	0
156	7	12	80	0	0	0
157	7	13	81	0	0	0
158	7	14	82	0	0	0
159	7	15	83	0	0	0
160	7	16	84	0	0	0
161	7	17	85	0	0	0
162	7	18	86	0	0	0
163	7	19	87	0	0	0
164	7	20	88	0	0	0
165	7	21	89	0	0	0
166	7	22	90	0	0	0
167	7	23	91	0	0	0
168	7	24	92	0	0	0
169	7	25	93	0	0	0
170	7	26	94	0	0	0
171	7	27	95	0	0	0
172	7	28	96	0	0	0
173	7	29	97	0	0	0
174	7	30	98	0	0	0
175	7	31	99	0	0	0
176	7	32	100	0	0	0
177	7	33	101	0	0	0
178	7	34	102	0	0	0
179	7	35	103	0	0	0
180	7	36	104	0	0	0
181	7	37	105	0	0	0
182	7	38	106	0	0	0
183	7	39	107	0	0	0
184	7	40	108	0	0	0
185	7	41	109	0	0	0
186	7	42	110	0	0	0
187	7	43	111	0	0	0
188	7	44	112	0	0	0
189	7	45	113	0	0	0
190	7	46	114	0	0	0
191	7	47	115	0	0	0

[SkillLst]	NSetIdx	NpcsIdx	SkillIdx	SkillLv

[ShopLst]	NpcsIdx	NSetIdx	ItemKind	ItemOpt	ReputationClass	DurationIdx	Price
0	50	0	3	1	-19	0	60
1	50	1	4	1	-19	0	800
2	50	2	5	1	-19	0	5000
3	50	3	6	1	-19	0	60
4	50	4	7	1	-19	0	800
5	50	5	8	1	-19	0	5000
6	50	8	3	4	-19	0	240
7	50	9	4	4	-19	0	3200
8	50	10	5	4	-19	0	20000
9	50	11	6	4	-19	0	240
10	50	12	7	4	-19	0	3200
11	50	13	8	4	-19	0	20000
12	50	16	3	7	-19	0	420
13	50	17	4	7	-19	0	5600
14	50	18	5	7	-19	0	35000
15	50	19	6	7	-19	0	420
16	50	20	7	7	-19	0	5600
17	50	21	8	7	-19	0	35000
18	50	24	5	20	1	0	100000
19	50	25	8	20	1	0	100000
20	50	26	12	10	1	0	8000
21	50	27	5	30	2	0	150000
22	50	28	8	30	2	0	150000
23	50	29	12	20	2	0	16000
24	50	35	5	50	3	0	250000
25	50	36	8	50	3	0	250000
26	50	37	12	30	3	0	24000
